92
18
0 19 21 22 25 26 27 30 31 32 33 34 41 42 45 46 47 49 51 52 53 54 55 56 58 61 62 63 64 66 67 68 69 70 71 72 73 79 80 82 83 84 87 88 89 90
1 21 23 24 25 27 30 31 33 34 36 39 41 45 47 49 51 53 54 55 56 58 61 62 63 66 67 68 70 71 72 75 77 78 79 82 83 84 85 87 88 90
2 18 19 22 23 25 26 27 28 30 33 34 36 37 38 39 40 41 43 44 46 48 53 54 55 56 58 60 61 62 63 66 69 70 71 72 75 77 78 79 80 81 83 84 85 87 89 90
3 18 19 21 25 26 27 28 29 30 33 34 36 39 40 41 42 43 47 48 49 51 52 54 55 56 58 61 63 68 69 70 72 76 77 79 84 87 89 90 91
4 19 20 22 23 24 25 26 27 30 35 40 42 43 47 51 52 53 54 56 57 61 63 68 69 70 71 72 76 77 79 80 87 89 90
5 18 19 22 25 26 27 28 29 30 34 39 42 43 49 51 53 54 56 61 63 65 69 70 71 72 75 76 77 78 79 80 84 85 87 88 90 91
6 20 21 22 26 27 33 34 35 36 38 41 43 46 47 49 50 51 53 54 56 57 62 63 64 66 67 68 69 71 74 75 77 80 85 87 88 89
7 21 23 25 37 40 41 48 49 53 54 56 58 59 68 69 74 75 77 83 84 89
8 20 22 24 25 26 27 31 33 34 35 36 40 42 43 44 45 46 47 48 51 52 53 61 63 67 68 70 73 79 80 82 83 87 88 89
9 18 20 21 26 27 28 30 33 34 36 37 43 46 53 56 58 59 60 61 62 63 68 69 71 75 79 83 84 85 87 90
10 18 20 22 25 26 28 29 30 33 39 42 43 48 49 53 55 59 61 67 68 71 72 76 82 83 84 85 87
11 21 30 31 34 39 41 44 52 53 56 59 60 61 82 84 90
12 19 20 21 23 26 27 29 37 41 42 46 51 55 56 60 66 70 72 82 83 84 87 88
13 20 22 23 33 35 43 44 48 52 61 62 69 70 71 73 77 78 79 90
14 20 22 23 24 25 26 29 43 46 48 53 59 62 63 72 73 75 76 80 83 85 88 89
15 28 38 39 42 56 58 60 67 68 69 71 75 78 83 86 91
16 19 31 34 39 43 46 50 89
17 18 77 79
